[ti. 04. april 18:11:31 +0200 2023]  ./input/alternate_g_np/50-5-1.gcc
Set parameter Username
Academic license - for non-commercial use only - expires 2024-03-28
Set parameter TimeLimit to value 1800
Set parameter PreCrush to value 1
Set parameter LazyConstraints to value 1
Gurobi Optimizer version 10.0.1 build v10.0.1rc0 (linux64)

CPU model: AMD Ryzen 9 5950X 16-Core Processor, instruction set [SSE2|AVX|AVX2]
Thread count: 16 physical cores, 32 logical processors, using up to 32 threads

Optimize a model with 56 rows, 350 columns and 950 nonzeros
Model fingerprint: 0xfaae160b
Variable types: 0 continuous, 350 integer (350 binary)
Coefficient statistics:
  Matrix range     [1e+00, 1e+00]
  Objective range  [1e+00, 1e+02]
  Bounds range     [1e+00, 1e+00]
  RHS range        [1e+00, 1e+00]
Presolve time: 0.00s
Presolved: 56 rows, 350 columns, 950 nonzeros
Variable types: 0 continuous, 350 integer (350 binary)

Root relaxation: objective 2.326000e+03, 6 iterations, 0.00 seconds (0.00 work units)

    Nodes    |    Current Node    |     Objective Bounds      |     Work
 Expl Unexpl |  Obj  Depth IntInf | Incumbent    BestBd   Gap | It/Node Time

     0     0 2326.00000    0    6          - 2326.00000      -     -    0s
     0     0 2326.00000    0    -          - 2326.00000      -     -    0s
     0     0 2326.00000    0    6          - 2326.00000      -     -    0s
     0     0 2326.00000    0    -          - 2326.00000      -     -    0s
     0     0 2326.00000    0    6          - 2326.00000      -     -    0s
     0     0 2326.00000    0    -          - 2326.00000      -     -    0s
     0     0 2326.00000    0    5          - 2326.00000      -     -    0s
     0     2 2326.00000    0    4          - 2326.00000      -     -    0s
 40007 20560 2306.00000   32   25          - 2326.00000      -  14.1    5s
 69783 41262 2220.00000   32   66          - 2326.00000      -  21.3   10s
*88890 49137              24    2169.0000000 2326.00000  7.24%  24.8   14s
*89056 49120              27    2170.0000000 2326.00000  7.19%  24.8   14s
*90612 37781              22    2238.0000000 2326.00000  3.93%  24.8   14s
H91994 31246                    2259.0000000 2326.00000  2.97%  25.1   14s
H92457 28579                    2260.0000000 2326.00000  2.92%  25.3   14s
 93066 28182     cutoff   54      2260.00000 2326.00000  2.92%  25.5   15s
 100110 36551 2326.00000   33   56 2260.00000 2326.00000  2.92%  28.3   21s
*116110 36607              30    2280.0000000 2326.00000  2.02%  29.4   22s
*116224 36489              27    2281.0000000 2326.00000  1.97%  29.4   22s
 125364 37100 infeasible   47      2281.00000 2326.00000  1.97%  29.9   26s
H125760 31767                    2301.0000000 2326.00000  1.09%  30.0   26s
H129905 19703                    2313.0000000 2326.00000  0.56%  30.9   27s
 132622 16967 2326.00000   33   48 2313.00000 2326.00000  0.56%  31.8   30s
 145915 10798 2326.00000   38    - 2313.00000 2326.00000  0.56%  37.6   36s
 151961  8690     cutoff   31      2313.00000 2326.00000  0.56%  39.6   41s
 164640  6891     cutoff   32      2313.00000 2326.00000  0.56%  43.8   48s
 164975  4555 2326.00000   34   12 2313.00000 2326.00000  0.56%  43.9   50s

Cutting planes:
  User: 79
  Lazy constraints: 3628

Explored 177157 nodes (7828260 simplex iterations) in 51.49 seconds (70.17 work units)
Thread count was 32 (of 32 available processors)

Solution count 9: 2313 2301 2281 ... 2169

Optimal solution found (tolerance 1.00e-04)
Best objective 2.313000000000e+03, best bound 2.313000000000e+03, gap 0.0000%

User-callback calls 367880, time in user-callback 4.79 sec
Minimal separator inequalities added: 136695
Indegree inequalities added: 0
Passed solution check
[ti. 04. april 18:12:23 +0200 2023]  done

